LatticeConstant 1.0 Ang
%block LatticeVectors
 20.00000000 0.00000000 0.00000000
 0.00000000 20.00000000 0.00000000
 0.00000000 0.00000000 20.00000000
%endblock LatticeVectors

NumberOfAtoms 7
AtomicCoordinatesFormat Ang
%block AtomicCoordinatesAndAtomicSpecies
  0.11094900  0.11094900  0.45081300 1 # 1: Au
 -0.26287500  2.50884300  1.71807600 1 # 2: Au
  2.50884300 -0.26287400  1.71807600 1 # 3: Au
  2.17528900  2.17528900  0.35302000 1 # 4: Au
  4.05946900  4.05946900  3.79428900 1 # 5: Au
  4.10441800  1.90474000  2.24051600 1 # 6: Au
  1.90474000  4.10441800  2.24051600 1 # 7: Au
%endblock AtomicCoordinatesAndAtomicSpecies

NumberOfSpecies 1
%block ChemicalSpeciesLabel
 1 79 Au
%endblock ChemicalSpeciesLabel
