LatticeConstant 1.0 Ang
%block LatticeVectors
 20.00000000 0.00000000 0.00000000
 0.00000000 20.00000000 0.00000000
 0.00000000 0.00000000 20.00000000
%endblock LatticeVectors

NumberOfAtoms 9
AtomicCoordinatesFormat Ang
%block AtomicCoordinatesAndAtomicSpecies
 0.245187    0.245187    0.245187 1 # 1: Au
 0.023520    2.195142    2.195139 1 # 2: Au
 2.195142    0.023521    2.195140 1 # 3: Au
 2.195141    2.195141    0.023522 1 # 4: Au
 3.513459    3.513459    3.513459 1 # 5: Au
 3.991173    0.175828    0.175829 1 # 6: Au
 0.175828    3.991173    0.175828 1 # 7: Au
 0.175828    0.175828    3.991175 1 # 8: Au
 4.17129000  2.195141    2.195140 1 # 9: Au
%endblock AtomicCoordinatesAndAtomicSpecies

NumberOfSpecies 1
%block ChemicalSpeciesLabel
 1 79 Au
%endblock ChemicalSpeciesLabel
