LatticeConstant 1.0 Ang
%block LatticeVectors
 20.00000000 0.00000000 0.00000000
 0.00000000 20.00000000 0.00000000
 0.00000000 0.00000000 20.00000000
%endblock LatticeVectors

NumberOfAtoms 8
AtomicCoordinatesFormat Ang
%block AtomicCoordinatesAndAtomicSpecies
 0.24518700 0.24518700 0.24518700 1 # 1: Au
 0.02352000 2.19514200 2.19513900 1 # 2: Au
 2.19514200 0.02352100 2.19514000 1 # 3: Au
 2.19514100 2.19514100 0.02352200 1 # 4: Au
 3.51345900 3.51345900 3.51345900 1 # 5: Au
 3.99117300 0.17582800 0.17582900 1 # 6: Au
 0.17582800 3.99117300 0.17582800 1 # 7: Au
 0.17582800 0.17582800 3.99117500 1 # 8: Au
%endblock AtomicCoordinatesAndAtomicSpecies

NumberOfSpecies 1
%block ChemicalSpeciesLabel
 1 79 Au
%endblock ChemicalSpeciesLabel
