LatticeConstant 1.0 Ang
%block LatticeVectors
 20.00000000 0.00000000 0.00000000
 0.00000000 20.00000000 0.00000000
 0.00000000 0.00000000 20.00000000
%endblock LatticeVectors

NumberOfAtoms 12
AtomicCoordinatesFormat Ang
%block AtomicCoordinatesAndAtomicSpecies
 0.420168    0.216228    0.626883 1 #  1: Au
 0.500910    2.447642    2.421497 1 #  2: Au
 2.527932   -0.090678    2.296629 1 #  3: Au
 2.139151    2.295107   -0.001338 1 #  4: Au
 2.719374    3.653390    3.584761 1 #  5: Au
 3.944641    0.208699   -0.147958 1 #  6: Au
 0.010318    3.985035    0.443223 1 #  7: Au
 0.199973   -0.021600    3.657767 1 #  8: Au
 4.206262    2.056801    2.130922 1 #  9: Au
 0.011703    2.511581    4.970840 1 # 10: Au
 5.262664   -0.466235    2.070124 1 # 11: Au
 2.08564000 5.25693000 0.00000000 1 # 12: Au
%endblock AtomicCoordinatesAndAtomicSpecies

NumberOfSpecies 1
%block ChemicalSpeciesLabel
 1 79 Au
%endblock ChemicalSpeciesLabel
