LatticeConstant 1.0 Ang
%block LatticeVectors
 11.88939400 0.00000000 0.00000000
 0.00000000 11.88939400 0.00000000
 0.00000000 0.00000000 29.09894700
%endblock LatticeVectors

NumberOfAtoms 12
AtomicCoordinatesFormat Ang
%block AtomicCoordinatesAndAtomicSpecies
 1.88939400 1.88939400 4.74877900 1 #  1: Ti
 1.88939400 0.00000000 7.12317100 1 #  2: Ti
 -0.00000000 -0.00000000 0.00000200 1 #  3: Ti
 0.00000000 1.88939400 2.37439100 1 #  4: Ti
 -0.00000000 1.88939400 4.35016900 2 #  5: O
 1.88939400 1.88939400 6.72456000 2 #  6: O
 1.88939400 -0.00000000 5.14739400 2 #  7: O
 0.00000000 0.00000000 7.52178300 2 #  8: O
 1.88939400 0.00000000 9.09894900 2 #  9: O
 0.00000000 0.00000000 1.97577700 2 # 10: O
 -0.00000000 1.88939400 0.39861100 2 # 11: O
 1.88939400 1.88939400 2.77300300 2 # 12: O
%endblock AtomicCoordinatesAndAtomicSpecies

NumberOfSpecies 2
%block ChemicalSpeciesLabel
 1 22 Ti
 2 8 O
%endblock ChemicalSpeciesLabel
