LatticeConstant 1.0 Ang
%block LatticeVectors
 20.00000000 0.00000000 0.00000000
 0.00000000 20.00000000 0.00000000
 0.00000000 0.00000000 20.00000000
%endblock LatticeVectors

NumberOfAtoms 10
AtomicCoordinatesFormat Ang
%block AtomicCoordinatesAndAtomicSpecies
  0.06171700  0.34331600  0.77835900 1 #  1: Au
  0.55196100  2.42391100  2.48542100 1 #  2: Au
  2.36498200 -0.12163100  2.18001400 1 #  3: Au
  2.26626100  2.14827600  0.13285200 1 #  4: Au
  2.82073900  3.41672500  3.59035200 1 #  5: Au
  4.20927100  0.30766100 -0.22098100 1 #  6: Au
  0.19135100  3.84697200  0.35086000 1 #  7: Au
  0.09375500  0.00596800  3.68383900 1 #  8: Au
  4.24550100  1.92664300  1.96259800 1 #  9: Au
 -0.11994900  2.49913400  5.02424400 1 # 10: Au
%endblock AtomicCoordinatesAndAtomicSpecies

NumberOfSpecies 1
%block ChemicalSpeciesLabel
 1 79 Au
%endblock ChemicalSpeciesLabel
