LatticeConstant 1.0 Ang
%block LatticeVectors
 20.00000000 0.00000000 0.00000000
 0.00000000 20.00000000 0.00000000
 0.00000000 0.00000000 20.00000000
%endblock LatticeVectors

NumberOfAtoms 5
AtomicCoordinatesFormat Ang
%block AtomicCoordinatesAndAtomicSpecies
 -0.09370100  0.14937000  0.14938000 1 # 1: Au
  0.01792800  2.00931900  2.00931000 1 # 2: Au
  2.04142100 -0.00940500  1.97636200 1 # 3: Au
  2.04142300  1.97637100 -0.00939700 1 # 4: Au
  3.93446400  0.04715500  0.04715500 1 # 5: Au
%endblock AtomicCoordinatesAndAtomicSpecies

NumberOfSpecies 1
%block ChemicalSpeciesLabel
 1 79 Au
%endblock ChemicalSpeciesLabel
