LatticeConstant 1.0 Ang
%block LatticeVectors
 3.78000000 0.00000000 0.00000000
 0.00000000 3.78000000 0.00000000
 0.00000000 0.00000000 40.8600000
%endblock LatticeVectors

NumberOfAtoms 36
AtomicCoordinatesFormat Ang
%block AtomicCoordinatesAndAtomicSpecies
  1.89127000  1.89127000  4.80751000 1 #  1: Ti
  1.89127000  0.00000000  7.21127000 1 #  2: Ti
  0.00000000  0.00000000  0.00000000 1 #  3: Ti
  0.00000000  1.89127000  2.40376000 1 #  4: Ti
  0.00000000  1.89127000  4.39553000 2 #  5: O
  1.89127000  1.89127000  6.79928000 2 #  6: O
  1.89127000  0.00000000  5.21949000 2 #  7: O
  0.00000000  0.00000000  7.62325000 2 #  8: O
  1.89127000  0.00000000  9.20304000 2 #  9: O
  0.00000000  0.00000000  1.99177000 2 # 10: O
  0.00000000  1.89127000  0.41198000 2 # 11: O
  1.89127000  1.89127000  2.81574000 2 # 12: O
  1.89127000  1.89127000 14.42751000 1 # 13: Ti
  1.89127000  0.00000000 16.83127000 1 # 14: Ti
  0.00000000  0.00000000  9.62000000 1 # 15: Ti
  0.00000000  1.89127000 12.02376000 1 # 16: Ti
  0.00000000  1.89127000 14.01553000 2 # 17: O
  1.89127000  1.89127000 16.41928000 2 # 18: O
  1.89127000  0.00000000 14.83949000 2 # 19: O
  0.00000000  0.00000000 17.24325000 2 # 20: O
  1.89127000  0.00000000 18.82304000 2 # 21: O
  0.00000000  0.00000000 11.61177000 2 # 22: O
  0.00000000  1.89127000 10.03198000 2 # 23: O
  1.89127000  1.89127000 12.43574000 2 # 24: O
  1.89127000  1.89127000 24.04751000 1 # 25: Ti
  1.89127000  0.00000000 26.45127000 1 # 26: Ti
  0.00000000  0.00000000 19.24000000 1 # 27: Ti
  0.00000000  1.89127000 21.64376000 1 # 28: Ti
  0.00000000  1.89127000 23.63553000 2 # 29: O
  1.89127000  1.89127000 26.03928000 2 # 30: O
  1.89127000  0.00000000 24.45949000 2 # 31: O
  0.00000000  0.00000000 26.86325000 2 # 32: O
  1.89127000  0.00000000 28.44304000 2 # 33: O
  0.00000000  0.00000000 21.23177000 2 # 34: O
  0.00000000  1.89127000 19.65198000 2 # 35: O
  1.89127000  1.89127000 22.05574000 2 # 36: O
%endblock AtomicCoordinatesAndAtomicSpecies

NumberOfSpecies 2
%block ChemicalSpeciesLabel
 1 22 Ti
 2 8 O
%endblock ChemicalSpeciesLabel
