LatticeConstant 1.0 Ang
%block LatticeVectors
 20.00000000 0.00000000 0.00000000
 0.00000000 20.00000000 0.00000000
 0.00000000 0.00000000 20.00000000
%endblock LatticeVectors

NumberOfAtoms 3
AtomicCoordinatesFormat Ang
%block AtomicCoordinatesAndAtomicSpecies
 0.05901900 0.05901900 0.11803800 1 # 1: Au
 0.05904800 1.96758900 2.02664000 1 # 2: Au
 1.96758900 0.05904800 2.02664000 1 # 3: Au
%endblock AtomicCoordinatesAndAtomicSpecies

NumberOfSpecies 1
%block ChemicalSpeciesLabel
 1 79 Au
%endblock ChemicalSpeciesLabel
