LatticeConstant 1.0 Ang
%block LatticeVectors
 21.3400000 0.00000000 0.00000000
 0.00000000 3.78000000 0.00000000
 0.00000000 0.00000000 9.620000000
%endblock LatticeVectors

NumberOfAtoms 36
AtomicCoordinatesFormat Ang
%block AtomicCoordinatesAndAtomicSpecies
 1.89127000 1.89127000 4.80751000 1 #  1: Ti
 1.89127000 0.00000000 7.21127000 1 #  2: Ti
 0.00000000 0.00000000 0.00000000 1 #  3: Ti
 0.00000000 1.89127000 2.40376000 1 #  4: Ti
 0.00000000 1.89127000 4.39553000 2 #  5: O
 1.89127000 1.89127000 6.79928000 2 #  6: O
 1.89127000 0.00000000 5.21949000 2 #  7: O
 0.00000000 0.00000000 7.62325000 2 #  8: O
 1.89127000 0.00000000 9.20304000 2 #  9: O
 0.00000000 0.00000000 1.99177000 2 # 10: O
 0.00000000 1.89127000 0.41198000 2 # 11: O
 1.89127000 1.89127000 2.81574000 2 # 12: O
 5.67127000 1.89127000 4.80751000 1 # 13: Ti
 5.67127000 0.00000000 7.21127000 1 # 14: Ti
 3.78000000 0.00000000 0.00000000 1 # 15: Ti
 3.78000000 1.89127000 2.40376000 1 # 16: Ti
 3.78000000 1.89127000 4.39553000 2 # 17: O
 5.67127000 1.89127000 6.79928000 2 # 18: O
 5.67127000 0.00000000 5.21949000 2 # 19: O
 3.78000000 0.00000000 7.62325000 2 # 20: O
 5.67127000 0.00000000 9.20304000 2 # 21: O
 3.78000000 0.00000000 1.99177000 2 # 22: O
 3.78000000 1.89127000 0.41198000 2 # 23: O
 5.67127000 1.89127000 2.81574000 2 # 24: O
 9.45127000 1.89127000 4.80751000 1 # 25: Ti
 9.45127000 0.00000000 7.21127000 1 # 26: Ti
 7.56000000 0.00000000 0.00000000 1 # 27: Ti
 7.56000000 1.89127000 2.40376000 1 # 28: Ti
 7.56000000 1.89127000 4.39553000 2 # 29: O
 9.45127000 1.89127000 6.79928000 2 # 30: O
 9.45127000 0.00000000 5.21949000 2 # 31: O
 7.56000000 0.00000000 7.62325000 2 # 32: O
 9.45127000 0.00000000 9.20304000 2 # 33: O
 7.56000000 0.00000000 1.99177000 2 # 34: O
 7.56000000 1.89127000 0.41198000 2 # 35: O
 9.45127000 1.89127000 2.81574000 2 # 36: O
%endblock AtomicCoordinatesAndAtomicSpecies

NumberOfSpecies 2
%block ChemicalSpeciesLabel
 1 22 Ti
 2 8 O
%endblock ChemicalSpeciesLabel
