LatticeConstant 1.0 Ang
%block LatticeVectors
 16.25693000 0.00000000 0.00000000
 0.00000000 12.08564000 0.00000000
 0.00000000 0.00000000 12.08564000
%endblock LatticeVectors

NumberOfAtoms 2
AtomicCoordinatesFormat Ang
%block AtomicCoordinatesAndAtomicSpecies
 0.00000000 0.00000000 0.00000000 1 # 1: Au
 0.00000000 2.08564000 2.08564000 1 # 2: Au
%endblock AtomicCoordinatesAndAtomicSpecies

NumberOfSpecies 1
%block ChemicalSpeciesLabel
 1 79 Au
%endblock ChemicalSpeciesLabel
