LatticeConstant 1.0 Ang
%block LatticeVectors
 3.78253968 0.00000000 0.00000000
 0.00000000 3.78253968 0.00000000
 0.00000000 0.00000000 9.61502157
%endblock LatticeVectors

NumberOfAtoms 12
AtomicCoordinatesFormat Ang
%block AtomicCoordinatesAndAtomicSpecies
 1.89126984 1.89126984 4.80751078 1 #  1: Ti
 1.89126984 0.00000000 7.21126618 1 #  2: Ti
 0.00000000 0.00000000 0.00000000 1 #  3: Ti
 0.00000000 1.89126984 2.40375539 1 #  4: Ti
 0.00000000 1.89126984 4.39552759 2 #  5: O
 1.89126984 1.89126984 6.79928298 2 #  6: O
 1.89126984 0.00000000 5.21949398 2 #  7: O
 0.00000000 0.00000000 7.62324947 2 #  8: O
 1.89126984 0.00000000 9.20303838 2 #  9: O
 0.00000000 0.00000000 1.99177210 2 # 10: O
 0.00000000 1.89126984 0.41198329 2 # 11: O
 1.89126984 1.89126984 2.81573868 2 # 12: O
%endblock AtomicCoordinatesAndAtomicSpecies

NumberOfSpecies 2
%block ChemicalSpeciesLabel
 1 22 Ti
 2 8 O
%endblock ChemicalSpeciesLabel
