LatticeConstant 1.0 Ang
%block LatticeVectors
 16.25693000 0.00000000 0.00000000
 0.00000000 16.25693000 0.00000000
 0.00000000 0.00000000 12.08564000
%endblock LatticeVectors

NumberOfAtoms 16
AtomicCoordinatesFormat Ang
%block AtomicCoordinatesAndAtomicSpecies
 0.00000000 0.00000000 0.00000000 1 #  1: Au
 0.00000000 2.08564000 2.08564000 1 #  2: Au
 2.08564000 0.00000000 2.08564000 1 #  3: Au
 2.08564000 2.08564000 0.00000000 1 #  4: Au
 0.00000000 4.17129000 0.00000000 1 #  5: Au
 0.00000000 6.25693000 2.08564000 1 #  6: Au
 2.08564000 4.17129000 2.08564000 1 #  7: Au
 2.08564000 6.25693000 0.00000000 1 #  8: Au
 4.17129000 0.00000000 0.00000000 1 #  9: Au
 4.17129000 2.08564000 2.08564000 1 # 10: Au
 6.25693000 0.00000000 2.08564000 1 # 11: Au
 6.25693000 2.08564000 0.00000000 1 # 12: Au
 4.17129000 4.17129000 0.00000000 1 # 13: Au
 4.17129000 6.25693000 2.08564000 1 # 14: Au
 6.25693000 4.17129000 2.08564000 1 # 15: Au
 6.25693000 6.25693000 0.00000000 1 # 16: Au
%endblock AtomicCoordinatesAndAtomicSpecies

NumberOfSpecies 1
%block ChemicalSpeciesLabel
 1 79 Au
%endblock ChemicalSpeciesLabel
