LatticeConstant 1.0 Ang
%block LatticeVectors
 5.66939000 0.00000000 0.00000000
 0.00000000 5.66939000 0.00000000
 0.00000000 0.00000000 17.5217800
%endblock LatticeVectors

NumberOfAtoms 44
AtomicCoordinatesFormat Ang
%block AtomicCoordinatesAndAtomicSpecies
  1.88939000  1.88939000 14.74878000 1 #  1: Ti
  1.88939000  0.00000000 17.12317000 1 #  2: Ti
  0.00000000  0.00000000 10.00000000 1 #  3: Ti
  0.00000000  1.88939000 12.37439000 1 #  4: Ti
  0.00000000  1.88939000 14.35017000 2 #  5: O
  1.88939000  1.88939000 16.72456000 2 #  6: O
  1.88939000  0.00000000 15.14739000 2 #  7: O
  0.00000000  0.00000000 17.52178000 2 #  8: O
  0.00000000  0.00000000 11.97578000 2 #  9: O
  0.00000000  1.88939000 10.39861000 2 # 10: O
  1.88939000  1.88939000 12.77300000 2 # 11: O
  1.88939000  5.66939000 14.74878000 1 # 12: Ti
  1.88939000  3.78000000 17.12317000 1 # 13: Ti
  0.00000000  3.78000000 10.00000000 1 # 14: Ti
  0.00000000  5.66939000 12.37439000 1 # 15: Ti
  0.00000000  5.66939000 14.35017000 2 # 16: O
  1.88939000  5.66939000 16.72456000 2 # 17: O
  1.88939000  3.78000000 15.14739000 2 # 18: O
  0.00000000  3.78000000 17.52178000 2 # 19: O
  0.00000000  3.78000000 11.97578000 2 # 20: O
  0.00000000  5.66939000 10.39861000 2 # 21: O
  1.88939000  5.66939000 12.77300000 2 # 22: O
  5.66939000  1.88939000 14.74878000 1 # 23: Ti
  5.66939000  0.00000000 17.12317000 1 # 24: Ti
  3.78000000  0.00000000 10.00000000 1 # 25: Ti
  3.78000000  1.88939000 12.37439000 1 # 26: Ti
  3.78000000  1.88939000 14.35017000 2 # 27: O
  5.66939000  1.88939000 16.72456000 2 # 28: O
  5.66939000  0.00000000 15.14739000 2 # 29: O
  3.78000000  0.00000000 17.52178000 2 # 30: O
  3.78000000  0.00000000 11.97578000 2 # 31: O
  3.78000000  1.88939000 10.39861000 2 # 32: O
  5.66939000  1.88939000 12.77300000 2 # 33: O
  5.66939000  5.66939000 14.74878000 1 # 34: Ti
  5.66939000  3.78000000 17.12317000 1 # 35: Ti
  3.78000000  3.78000000 10.00000000 1 # 36: Ti
  3.78000000  5.66939000 12.37439000 1 # 37: Ti
  3.78000000  5.66939000 14.35017000 2 # 38: O
  5.66939000  5.66939000 16.72456000 2 # 39: O
  5.66939000  3.78000000 15.14739000 2 # 40: O
  3.78000000  3.78000000 17.52178000 2 # 41: O
  3.78000000  3.78000000 11.97578000 2 # 42: O
  3.78000000  5.66939000 10.39861000 2 # 43: O
  5.66939000  5.66939000 12.77300000 2 # 44: O
%endblock AtomicCoordinatesAndAtomicSpecies

NumberOfSpecies 2
%block ChemicalSpeciesLabel
 1 22 Ti
 2 8 O
%endblock ChemicalSpeciesLabel
