LatticeConstant 1.0 Ang
%block LatticeVectors
 20.00000000 0.00000000 0.00000000
 0.00000000 20.00000000 0.00000000
 0.00000000 0.00000000 20.00000000
%endblock LatticeVectors

NumberOfAtoms 10
AtomicCoordinatesFormat Ang
%block AtomicCoordinatesAndAtomicSpecies
 0.245445    0.138673    0.138673 1 #  1: Au
 0.291656    2.236428    2.236428 1 #  2: Au
 2.155945    0.121428    2.193653 1 #  3: Au
 2.155945    2.193652    0.121427 1 #  4: Au
 3.250671    3.693461    3.693461 1 #  5: Au
 3.939488    0.099955    0.099955 1 #  6: Au
 0.200100    3.991556    0.215527 1 #  7: Au
 0.200101    0.215528    3.991557 1 #  8: Au
 4.247088    2.020105    2.020105 1 #  9: Au
 0.00000000 2.08564000 5.25693000 1 # 10: Au
%endblock AtomicCoordinatesAndAtomicSpecies

NumberOfSpecies 1
%block ChemicalSpeciesLabel
 1 79 Au
%endblock ChemicalSpeciesLabel
